67
 1 469 7
 2 990 15
 3 325 5
 4 768 12
 5 441 7
 6 806 13
 7 1159 19
 8 780 13
 9 531 9
 10 348 6
 11 570 10
 12 728 13
 13 275 5
 14 378 7
 15 53 1
 16 936 18
 17 1020 20
 18 750 15
 19 196 4
 20 336 7
 21 752 16
 22 552 12
 23 405 9
 24 88 2
 25 258 6
 26 420 10
 27 369 9
 28 400 10
 29 507 13
 30 152 4
 31 518 14
 32 360 10
 33 315 9
 34 204 6
 35 132 4
 36 32 1
 37 527 17
 38 300 10
 39 232 8
 40 224 8
 41 243 9
 42 208 8
 43 425 17
 44 120 5
 45 207 9
 46 396 18
 47 231 11
 48 220 11
 49 361 19
 50 162 9
 51 51 3
 52 64 4
 53 105 7
 54 14 1
 55 182 14
 56 72 6
 57 55 5
 58 130 13
 59 54 6
 60 56 7
 61 105 15
 62 84 14
 63 40 8
 64 68 17
 65 15 5
 66 20 10
 67 8 8
134